NAME : portcgen-26-11
COMMENT : portcgen N=26, seed=11
TYPE : TSP
DIMENSION : 26
EDGE_WEIGHT_TYPE : EUC_2D
NODE_COORD_SECTION
1 -344975 -1757
2 82129 -245126
3 -307223 64576
4 -167518 13148
5 160177 -145738
6 86480 -534085
7 164365 -103566
8 197468 321201
9 71673 -119365
10 -120368 -197294
11 31027 26953
12 76584 266003
13 -365797 -200751
14 346246 223828
15 35262 -17934
16 -172637 183920
17 271672 -155487
18 239930 38705
19 -135550 -153222
20 31798 346688
21 9265 -47013
22 -45119 109542
23 185642 26088
24 -72918 96643
25 -33367 -9946
26 29259 18168
